time,stress_zz
0,0
0.02,41.617475428376
0.04,83.26991543269
0.06,124.95734060201
0.08,166.67977154088
0.1,208.43722886846
0.12,250.22973321922
0.14,292.05730524216
0.16,333.91996560146
0.18,375.81773497664
0.2,417.75063406166

