time _dt bot_react_x bot_react_y disp_x16 disp_x9 disp_y16 disp_y9 num_lin_it num_nonlin_it ref_resid_x ref_resid_y stress_yy stress_zz top_react_x top_react_y
0 0 0 0 0 0 0 0 0 0 0 0 0 0 0 0
1 1 5.8114811668442e-11 345.25237944792 3.296700000002e-05 3.2967000000015e-05 -0.0001098900000001 0 4 2 3.8210267706562e-10 460.3365059305 -109.89000000006 0 -2.0893314205425e-12 -345.25237944791

