time _dt bot_react_x bot_react_y disp_x16 disp_x9 disp_y16 disp_y9 num_lin_it num_nonlin_it ref_resid_x ref_resid_y stress_yy stress_zz top_react_x top_react_y
0 0 0 0 0 0 0 0 0 0 0 0 0 0 0 0
1 1 -3.5284049773246e-10 345.25237944824 3.2967000000016e-05 3.2966999999972e-05 -0.00010989000000008 0 4 2 2.0108105985966e-09 460.33650593076 -109.89000000013 0 -9.1144492917908e-11 -345.2523794478

