time _dt bot_react_x bot_react_y disp_x16 disp_x9 disp_y16 disp_y9 num_lin_it num_nonlin_it ref_resid_x ref_resid_y stress_yy stress_zz top_react_x top_react_y
0 0 0 0 0 0 0 0 0 0 0 0 0 0 0 0
1 1 7.6144709237709e-08 345.25237977572 3.2967000135579e-05 3.2967000077323e-05 -0.00010999989736152 0 6 2 8.9983254994251e-07 460.33650606192 -109.89000001887 0 3.1154086044618e-07 -345.25237940056

