time _dt bot_react_x bot_react_y disp_x16 disp_x9 disp_y16 disp_y9 num_lin_it num_nonlin_it ref_resid_x ref_resid_y stress_yy stress_zz top_react_x top_react_y
0 0 0 0 0 0 0 0 0 0 0 0 0 0 0 0
1 1 -2.7292127023184e-08 345.25237950529 3.2966999966095e-05 3.2966999961166e-05 -0.00010988999998105 0 8 3 2.2424316695608e-07 460.33650592606 -109.89000000867 0 -1.0493820694556e-07 -345.25237952902

