time _dt bot_react_x bot_react_y disp_x16 disp_x9 disp_y16 disp_y9 num_lin_it num_nonlin_it ref_resid_x ref_resid_y stress_yy stress_zz top_react_x top_react_y
0 0 0 0 0 0 0 0 0 0 0 0 0 0 0 0
1 1 7.6347575356298e-08 345.25237943727 3.296700012959e-05 3.2967000071305e-05 -0.00010999989735679 0 6 2 8.6860392276175e-07 460.33650601072 -109.88999999979 0 2.8920391601369e-07 -345.25237944648

