time _dt bot_react_x bot_react_y disp_x16 disp_x9 disp_y16 disp_y9 num_lin_it num_nonlin_it ref_resid_x ref_resid_y stress_yy stress_zz top_react_x top_react_y
0 0 0 0 0 0 0 0 0 0 0 0 0 0 0 0
1 1 8.3926847004529e-12 345.25237944788 3.2967000000044e-05 3.2967000000046e-05 -0.00010988999999994 0 4 2 2.3925759835726e-10 460.33650593072 -109.89000000006 0 -1.0548276681288e-11 -345.2523794479

