time,err_P,err_T,fluid_mass,p0,porosity,stress_xx,stress_yy,stress_zz,t0,total_heat
0,0,0,0,0,0,0,0,0,0,0
1,1.1487903246276e-15,2.2204460492503e-16,1.5,0.4348925564317,0.46337636191569,0,0,0,0.28275556076464,1
2,5.0194904088354e-16,0,1.5,0.88472967110042,0.42494477603756,0,0,0,0.55943191774903,2
3,1.6399800253419e-16,-1.4802973661669e-16,1.5,1.3539470084627,0.38472982896812,0,0,0,0.82981350164039,3
4,0,-1.1102230246252e-16,1.5,1.8488383108077,0.34276683658797,0,0,0,1.0937229925664,4
5,0,1.7763568394003e-16,1.5,2.3786769761468,0.29910095127301,0,0,0,1.3510230714669,5

