time,fluid_heat,fluid_mass,p0,rock_heat,stress_xx,stress_yy,stress_zz,t0,total_heat,zdisp
0,1.5878235856082,0.12214027581602,0.1,9.9,0,0,0,10,11.487823585608,0
2,1.6156707054119,0.12214027581602,0.11010135365876,9.8721528801964,-0.02,-0.02,-0.08,10.175379179753,11.487823585608,-0.02
4,1.6445120223696,0.12214027581602,0.12041099726013,9.8433115632387,-0.04,-0.04,-0.16,10.357019742465,11.487823585608,-0.04
6,1.6744017463834,0.12214027581602,0.13093770185904,9.8134218392248,-0.06,-0.06,-0.24,10.545263098243,11.487823585608,-0.06
8,1.7053981014682,0.12214027581602,0.14169080446953,9.78242548414,-0.08,-0.08,-0.32,10.740475937791,11.487823585608,-0.08
10,1.7375637043036,0.12214027581602,0.15268025782891,9.7502598813046,-0.1,-0.1,-0.4,10.943052616504,11.487823585608,-0.1

