time,p0,stress_xx,stress_yy,stress_zz,zdisp
1,0.03,-0.01,-0.01,-0.04,-0.01
2,0.06,-0.02,-0.02,-0.08,-0.02
3,0.09,-0.03,-0.03,-0.12,-0.03
4,0.12,-0.04,-0.04,-0.16,-0.04
5,0.15,-0.05,-0.05,-0.2,-0.05
6,0.18,-0.06,-0.06,-0.24,-0.06
7,0.21,-0.07,-0.07,-0.28,-0.07
8,0.24,-0.08,-0.08,-0.32,-0.08
9,0.27,-0.09,-0.09,-0.36,-0.09
10,0.3,-0.1,-0.1,-0.4,-0.1

