time,f_compressive,f_shear,f_tensile,intnl_shear,intnl_tensile,iter,ls,strainp_xx,strainp_xy,strainp_xz,strainp_yy,strainp_yz,strainp_zz,stress_xx,stress_xy,stress_xz,stress_yy,stress_yz,stress_zz
0,0,0,0,0,0,0,0,0,0,0,0,0,0,0,0,0,0,0,0
1,-42,-19,-28,0,0,0,0,0,0,0,0,0,0,0,4.6490589156178e-16,8,9.7144514654701e-17,6,2
2,-44,-8,-26,0,0,0,0,0,0,0,0,0,0,0,9.2981178312357e-16,16,1.942890293094e-16,12,4

