time,f_compressive,f_shear,f_tensile,intnl_shear,intnl_tensile,iter,ls,strainp_xx,strainp_xy,strainp_xz,strainp_yy,strainp_yz,strainp_zz,straint_xx,straint_xy,straint_xz,straint_yy,straint_yz,straint_zz,stress_xx,stress_xy,stress_xz,stress_yy,stress_yz,stress_zz
0,0,0,0,0,0,0,0,0,0,0,0,0,0,0,0,0,0,0,0,0,0,0,0,0,0
1,-99.999999999984,1.7763568394003e-15,-100.00000000002,4.999999999998,0,0,0,0.83333333333467,1.4999999999994,1.9999999999992,8.3266726846685e-18,0,1.3877787807171e-18,0.83333333333333,3,4,4.1633363423443e-17,5.8980598183211e-17,4.3715031594616e-16,-1.5997425606429e-11,12.000000000005,16.000000000006,-5.3309578973426e-12,4.7184478546569e-16,-5.3277382505712e-12

