time,fluid_mass,p0,stress_xx,stress_yy,stress_zz,zdisp
0,0.12214027581602,0.1,0,0,0,0
2,0.12214027581602,0.11010135365876,-0.02,-0.02,-0.08,-0.02
4,0.12214027581602,0.12041099726013,-0.04,-0.04,-0.16,-0.04
6,0.12214027581602,0.13093770185904,-0.06,-0.06,-0.24,-0.06
8,0.12214027581602,0.14169080446953,-0.08,-0.08,-0.32,-0.08
10,0.12214027581602,0.15268025782891,-0.1,-0.1,-0.4,-0.1

